p cnf 17 19
14 7 3 0
-13 -12 -7 15 14 0
15 10 13 -14 0
1 -14 12 5 -16 -4 -2 -8 -17 -15 0
-10 13 -15 11 3 -4 -2 -12 -14 -9 -8 0
-3 4 12 6 -8 -5 14 -1 -11 -10 0
-14 15 4 8 1 3 -9 -11 13 -17 -12 -6 -16 5 2 7 0
-14 17 -2 12 0
-17 15 0
-6 9 4 11 2 -12 -5 15 0
-2 -12 -3 15 -16 14 9 -1 13 0
-6 -5 -11 17 0
17 9 12 11 3 -14 1 -10 -4 16 -8 6 13 5 0
-12 8 0
8 11 -4 12 -3 16 17 -15 -5 0
-3 8 12 0
-8 -17 0
-17 -9 0
13 -11 5 16 -8 9 -2 -15 -6 -17 0
